La   Li   Ti   O 
1.0
        7.7378001213         0.0000000000         0.0000000000
        0.0000000000         7.7378001213         0.0000000000
        0.0000000000         0.0000000000         7.7378001213
   La   Li   Ti    O
    4    4    8   24
Direct
     0.042737727         0.005566181         0.500618524
     0.027694306         0.004033705         0.011211714
     0.533305853         0.003514823         0.016366023
     0.013979167         0.507335428         0.994023729
     0.581919788         0.048340612         0.529737370
     0.095939928         0.509682485         0.538936534
     0.560283775         0.506291141         0.580111421
     0.578167541         0.508501762         0.042857794
     0.772230180         0.269501267         0.748263471
     0.287704247         0.260779938         0.744864948
     0.281401182         0.267433122         0.254580371
     0.773314522         0.753602300         0.742974497
     0.287738233         0.750600822         0.745092712
     0.759261143         0.266032739         0.269947304
     0.756781501         0.747581351         0.274833933
     0.281046287         0.742503810         0.255871325
     0.010090594         0.299455770         0.710065412
     0.710375876         0.293679594         0.499998182
     0.515420393         0.202363844         0.769481116
     0.280931142         0.003609424         0.209263494
     0.723319770         0.502008862         0.804170652
     0.002411021         0.217231774         0.268304953
     0.514869440         0.797798075         0.775138049
     0.310092539         0.503033830         0.709057299
     0.281257720         0.784730378         0.492047620
     0.009638527         0.706144006         0.711167626
     0.801824673         0.000836801         0.698613137
     0.213499061         0.503917154         0.270632475
     0.287078113         0.219296175         0.490639842
     0.510591075         0.286279553         0.191074981
     0.219124551         0.002842927         0.765148614
     0.001727235         0.791235078         0.268963132
     0.222683960         0.274003729         0.988260740
     0.714553023         0.701819392         0.500575479
     0.787443453         0.503393840         0.202997743
     0.792905345         0.795359290         0.990774830
     0.510318818         0.721447066         0.192096590
     0.791823098         0.209741653         0.991465146
     0.715700654         0.002957042         0.289340005
     0.221971752         0.734528259         0.989440415
